3440
3346
2989
3449
3289
3131
3431
3554
3223
3187
3299
3307
3221
3046
2762
3403
3482
1680
2117
1759
1981
1738
3780
3915
3360
3961
3762
2300
1879
2092
2220
2046
4551
4279
4102
4248
4196
2436
2061
2710
2076
2536
1225
1278
1448
1848
1789
708
609
897
1058
1260
5833
5622
5890
5672
5606
3214
3389
3009
2832
2812
